c Random CNF formula
p cnf 50 50
-14 42 4 0
-43 -38 -32 0
-33 -40 -17 0
-14 13 -3 0
10 27 32 0
37 41 24 0
-10 35 -32 0
-1 19 39 0
-32 -26 18 0
-39 -3 40 0
-19 -44 24 0
50 -18 -10 0
1 -15 -29 0
-48 -5 -15 0
9 -48 -10 0
26 38 18 0
-47 -5 42 0
18 -7 -42 0
19 44 -34 0
-40 4 19 0
18 -40 13 0
18 -42 27 0
-28 -7 2 0
20 -37 3 0
5 -22 -24 0
3 -15 27 0
-38 -3 29 0
-48 43 -4 0
-30 6 -25 0
37 35 -2 0
-10 5 -47 0
-50 22 16 0
-45 41 -17 0
8 31 -39 0
9 15 42 0
-34 -27 -28 0
-17 24 13 0
-12 24 -3 0
-12 -40 45 0
10 -46 18 0
-47 46 -45 0
-28 -32 16 0
-39 36 24 0
34 -42 -9 0
-9 -26 42 0
26 -23 34 0
-17 31 42 0
-25 46 -42 0
-24 -50 -23 0
-11 -4 38 0
